
  32    4
  10   10   10   10

   0   0   0   0   0   2 2 7 
   9   1   0   1   1   1 3 
   6   4   1   1   0   3 6 5 4 
   9   0   6   5   8   4 17 12 9 8 
   8   7   4   3   0   3 17 12 9 
   3   8   0   2   9   3 17 12 8 
   4   0   2   4   4   3 17 11 10 
   7   3   4   6   0   2 11 10 
   7   5   0   1   5   2 11 10 
   6   1   0   5   5   2 16 14 
   2   4   1   3   0   2 15 13 
   4   6   7   0   4   1 13 
   4   1   0   5   1   2 18 16 
   3   5   5   4   0   1 15 
   6   0   5   5   3   2 26 18 
   1   4   7   6   0   3 26 22 19 
   4   3   0   6   3   3 26 22 19 
   1   0   2   3   7   2 22 19 
   8   0   5   6   4   1 20 
   4   0   9   5   1   2 24 21 
   7   4   0   5   4   2 28 23 
   6   0   4   3   5   2 28 23 
  10   5   2   4   0   3 31 29 25 
   6   6   5   0   3   2 29 27 
   6   0   3   3   3   1 27 
   6   4   2   4   0   1 28 
   4   2   0   4   6   1 30 
   1   1   4   7   0   1 29 
   1   2   2   1   0   1 32
   2   7   0   6   2   1 32
   7   5   4   0   2   1 32
   0   0   0   0   0   0 
